problems/csplib-prob015/SchursLemma-models/noch/O2/lingeling/model_1_2-7-15-solution000001.solution
language Essence 1.3

letting boxes be partition({1, 4, 6, 8, 11}, {2, 3, 9, 10}, {5, 7}, {12}, {13}, {14}, {15})
